Route 1: 164 73 85 180 153 25 87 113 12 165 4 3 2 104 188 190 63 82 34 148 163 70 53 169 154 174 58 57 5 90 26 157 166 79 126 133 89 183 86 181 78 45 151 171 99 168 55 96 67 18 115 92 77 23 144 111 80
Route 2: 8 146 159 193 27 40 6 21 136 150 14 83 110 54 100 134 182 135 170 30 189 91 66 142 64 105 46 93 198 10 123 11 161 141 84 50 124 17 176 98 16 22 36 33 149 94 28 97 117 81 51 59 140 37 172 175 179 52 39
Route 3: 192 62 131 61 108 177 35 162 137 120 129 118 195 147 88 29 31 15 49 155 139 103 56 65 9 19 158 101 143 43 160 76 106 109 20 121 138 178 71 68 128 1 102 75 122 127 112 13 167 95 196
Route 4: 199 42 72 41 74 47 152 116 119 197 191 200 145 194 38 60 184 48 186 114 44 24 125 132 69 130 185 32 7 187 107 173 156
Vehicles: 4
Distance: 4844.87
